p cnf 18 29
1 3 7 9 13 15 17 -14 -10 -2 0
3 9 13 15 17 -14 -8 -6 -4 -2 0
-16 11 -12 0
4 -3 -10 0
-7 -12 17 0
9 -12 -18 0
8 -10 15 0
-5 -3 15 0
17 11 4 0
-16 -13 -10 0
2 -1 -18 0
11 -12 -18 0
3 5 7 -14 -10 -8 -4 -1 0
-16 -7 -18 0
1 3 5 7 11 12 17 -8 0
3 5 7 13 17 -12 -10 -2 0
17 -18 15 0
1 7 -16 17 -14 -9 -8 -6 -2 0
9 11 -10 0
3 5 13 -18 17 -14 -9 -4 -2 0
8 -7 -1 0
-7 -5 13 0
-13 15 0
2 -14 -10 0
5 7 10 13 -17 -12 -6 -4 0
8 -13 0
-16 -3 13 0
6 0
1 3 5 7 -14 -12 -4 0
